1761.02
0 174 89 113 55 147 48 61 39 52 142 104 170 35 153 80 17 4 45 126 165 86 116 120 93 124 151 106 14 30 105 73 53 102 46 70 118 63 117 121 158 166 25 20 156 79 75 49 50 12 29 59 16 154 54 114 77 28 173 135 157 109 125 26 64 91 76 62 65 143 71 122 56 31 8 136 23 169 129 149 36 134 41 21 141 115 19 24 101 40 7 140 162 148 103 67 83 42 172 82 87 100 137 13 34 96 127 167 155 27 108 22 1 112 84 130 138 57 68 74 32 164 171 81 110 144 139 146 107 128 111 69 163 43 161 78 9 66 94 99 145 168 95 2 85 119 6 15 10 132 11 131 98 3 133 152 92 97 150 58 38 160 72 159 18 123 33 90 51 47 37 88 44 60 5
